NAME : rl100
COMMENT : 101-city TSP (Reinelt)
TYPE : TSP
DIMENSION : 100
EDGE_WEIGHT_TYPE : EUC_2D
NODE_COORD_SECTION
1 1.81920e+04 8.95400e+03
2 1.81920e+04 9.85600e+03
3 1.81920e+04 1.13190e+04
4 1.82720e+04 8.62400e+03
5 1.84160e+04 7.34800e+03
6 1.84160e+04 8.29400e+03
7 1.20000e+03 7.37000e+03
8 1.20000e+03 8.18400e+03
9 1.20000e+03 1.09120e+04
10 1.20000e+03 1.14400e+04
11 1.79040e+04 5.72000e+02
12 1.79040e+04 2.68400e+03
13 1.79040e+04 6.90800e+03
14 1.79040e+04 7.34800e+03
15 1.79040e+04 8.62400e+03
16 8.27200e+03 3.08000e+02
17 8.27200e+03 2.06800e+03
18 8.27200e+03 2.50800e+03
19 8.27200e+03 3.08000e+03
20 8.27200e+03 3.60800e+03
21 8.27200e+03 5.30200e+03
22 8.33600e+03 7.26000e+03
23 8.46400e+03 7.26000e+03
24 8.49600e+03 9.54800e+03
25 8.49600e+03 1.05820e+04
26 8.49600e+03 1.14400e+04
27 1.58880e+04 9.06400e+03
28 1.58880e+04 9.50400e+03
29 1.58880e+04 1.02520e+04
30 1.58880e+04 1.10000e+04
31 1.59360e+04 8.18400e+03
32 1.60480e+04 8.18400e+03
33 1.62080e+04 8.18400e+03
34 1.63360e+04 5.72000e+02
35 1.63360e+04 1.01200e+03
36 1.63360e+04 1.45200e+03
37 1.63360e+04 2.99200e+03
38 1.63360e+04 4.81800e+03
39 1.63360e+04 6.02800e+03
40 1.63360e+04 7.34800e+03
41 1.04000e+03 7.37000e+03
42 1.04000e+03 8.18400e+03
43 1.04000e+03 1.09120e+04
44 1.04000e+03 1.14400e+04
45 4.46400e+03 3.08000e+02
46 4.64000e+03 3.08000e+02
47 4.81600e+03 3.08000e+02
48 4.94400e+03 3.08000e+02
49 5.16800e+03 3.08000e+02
50 5.44000e+03 3.08000e+02
51 5.61600e+03 3.08000e+02
52 5.72800e+03 3.08000e+02
53 5.80800e+03 3.08000e+03
54 5.80800e+03 3.60800e+03
55 5.80800e+03 4.66400e+03
56 5.80800e+03 5.36800e+03
57 5.80800e+03 6.07200e+03
58 5.80800e+03 7.12800e+03
59 5.93600e+03 9.65800e+03
60 5.93600e+03 1.12860e+04
61 1.68480e+04 5.72000e+02
62 1.68480e+04 1.45200e+03
63 1.68480e+04 2.99200e+03
64 1.68480e+04 4.70800e+03
65 1.68480e+04 6.02800e+03
66 1.68480e+04 7.34800e+03
67 1.68480e+04 8.51400e+03
68 1.68480e+04 9.28400e+03
69 1.68480e+04 9.92200e+03
70 1.68480e+04 1.11980e+04
71 8.24000e+03 7.48000e+03
72 8.40000e+03 9.54800e+03
73 8.40000e+03 1.05820e+04
74 8.40000e+03 1.14400e+04
75 1.52000e+03 9.15200e+03
76 1.52000e+03 1.09120e+04
77 1.52000e+03 1.14400e+04
78 1.58400e+03 6.44600e+03
79 1.58400e+03 7.59000e+03
80 1.58400e+03 8.29400e+03
81 5.16800e+03 1.14400e+04
82 5.28000e+03 1.14400e+04
83 5.45600e+03 1.14400e+04
84 5.58400e+03 1.14400e+04
85 5.71200e+03 1.14400e+04
86 2.67200e+03 6.33600e+03
87 2.78400e+03 6.55600e+03
88 2.97600e+03 6.55600e+03
89 3.10400e+03 6.55600e+03
90 3.26400e+03 6.55600e+03
91 3.36000e+03 6.55600e+03
92 3.60000e+03 6.55600e+03
93 3.85600e+03 6.55600e+03
94 3.92000e+03 6.55600e+03
95 4.01600e+03 6.55600e+03
96 4.14400e+03 6.55600e+03
97 4.20800e+03 6.55600e+03
98 4.35200e+03 6.55600e+03
99 4.46400e+03 6.55600e+03
100 4.56000e+03 6.55600e+03
EOF
